(set-logic ALL)
(declare-fun var0 () String)
(assert (str.in_re var0 (re.++ (re.union (re.+ (str.to_re "00")) (re.+ (str.to_re "1"))) (re.++ (re.+ (re.* (str.to_re "222"))) (re.++ (re.+ (re.* (str.to_re "3"))) (re.++ (re.* (re.union (str.to_re "4") (str.to_re "555"))) (re.++ (re.+ (re.+ (str.to_re "66"))) (re.++ (re.union (re.union (str.to_re "77") (str.to_re "88")) (re.union (str.to_re "9") (str.to_re "aa"))) (re.++ (re.+ (re.* (str.to_re "bbb"))) (re.++ (re.* (re.* (str.to_re "ccc"))) (re.++ (re.union (re.+ (str.to_re "ddd")) (re.+ (str.to_re "e"))) (re.++ (re.* (re.union (str.to_re "fff") (str.to_re "gg"))) (re.++ (re.union (re.* (str.to_re "h")) (re.* (str.to_re "iii"))) (re.++ (re.+ (re.+ (str.to_re "jj"))) (re.++ (re.union (re.+ (str.to_re "kkk")) (re.+ (str.to_re "ll"))) (re.++ (re.* (re.* (str.to_re "mmm"))) (re.++ (re.* (re.+ (str.to_re "nn"))) (re.++ (re.+ (re.union (str.to_re "ooo") (str.to_re "p"))) (re.++ (re.+ (re.* (str.to_re "q"))) (re.++ (re.+ (re.+ (str.to_re "rr"))) (re.++ (re.* (re.+ (str.to_re "s"))) (re.++ (re.union (re.+ (str.to_re "tt")) (re.+ (str.to_re "uu"))) (re.++ (re.+ (re.+ (str.to_re "vvv"))) (re.++ (re.union (re.union (str.to_re "ww") (str.to_re "xx")) (re.union (str.to_re "y") (str.to_re "zz"))) (re.++ (re.+ (re.+ (str.to_re "A"))) (re.++ (re.+ (re.+ (str.to_re "BB"))) (re.++ (re.union (re.+ (str.to_re "CC")) (re.+ (str.to_re "D"))) (re.++ (re.* (re.+ (str.to_re "EEE"))) (re.++ (re.union (re.+ (str.to_re "F")) (re.+ (str.to_re "G"))) (re.++ (re.+ (re.* (str.to_re "HHH"))) (re.++ (re.union (re.union (str.to_re "I") (str.to_re "JJ")) (re.union (str.to_re "KKK") (str.to_re "L"))) (re.++ (re.union (re.* (str.to_re "MMM")) (re.* (str.to_re "N"))) (re.++ (re.union (re.union (str.to_re "OOO") (str.to_re "PP")) (re.union (str.to_re "QQQ") (str.to_re "RR"))) (re.++ (re.+ (re.* (str.to_re "S"))) (re.++ (re.+ (re.+ (str.to_re "TT"))) (re.++ (re.* (re.* (str.to_re "U"))) (re.++ (re.+ (re.+ (str.to_re "VV"))) (re.++ (re.* (re.union (str.to_re "W") (str.to_re "XX"))) (re.++ (re.* (re.union (str.to_re "YY") (str.to_re "ZZZ"))) (re.++ (re.* (re.+ (str.to_re "!"))) (re.++ (re.union (re.+ (str.to_re """""""")) (re.+ (str.to_re "###"))) (re.++ (re.+ (re.+ (str.to_re "$$"))) (re.++ (re.+ (re.+ (str.to_re "%"))) (re.++ (re.* (re.+ (str.to_re "&"))) (re.++ (re.* (re.+ (str.to_re "'"))) (re.++ (re.union (re.* (str.to_re "(((")) (re.* (str.to_re ")"))) (re.+ (re.* (str.to_re "***")))))))))))))))))))))))))))))))))))))))))))))))))
(check-sat)